%%%mzn-stat: initTime=0.102964876
%%%mzn-stat: objective=387
%%%mzn-stat: nodes=541
%%%mzn-stat: restarts=0
%%%mzn-stat: peakDepth=102
%%%mzn-stat: solveTime=0.039794761
%%%mzn-stat: variables=484
%%%mzn-stat: propagators=337
%%%mzn-stat: failures=399
%%%mzn-stat: propagations=100213
%%%mzn-stat: nogoods=399
%%%mzn-stat: AverageConflictSize=2.075187969924812
%%%mzn-stat: NumUnitNogoodsLearned=386
%%%mzn-stat: AverageLearnedNogoodLength=2.598997493734336
%%%mzn-stat: AverageBacktrackAmount=0
%%%mzn-stat: AverageLbd=1.213032581453634
%%%mzn-stat-end
maxleg = 387;
succ = array1d(1..20,[20, 9, 19, 15, 17, 3, 1, 13, 4, 6, 7, 11, 2, 5, 18, 14, 12, 10, 16, 8]);
% time elapsed: 5.78 s
----------
==========
% time elapsed: 5.78 s
%%%mzn-stat: initTime=0.102964876
%%%mzn-stat: objective=387
%%%mzn-stat: nodes=541
%%%mzn-stat: restarts=0
%%%mzn-stat: peakDepth=102
%%%mzn-stat: solveTime=0.039802388
%%%mzn-stat: variables=484
%%%mzn-stat: propagators=337
%%%mzn-stat: failures=399
%%%mzn-stat: propagations=100213
%%%mzn-stat: nogoods=399
%%%mzn-stat: AverageConflictSize=2.075187969924812
%%%mzn-stat: NumUnitNogoodsLearned=386
%%%mzn-stat: AverageLearnedNogoodLength=2.598997493734336
%%%mzn-stat: AverageBacktrackAmount=0
%%%mzn-stat: AverageLbd=1.213032581453634
%%%mzn-stat-end
